100
32
1
10
6
2
10
3
11
2
8
3
1
4
6
1
4
8
1
2
9
18
14
6
16
18
17
2
4
17
18
5
1
17
18
3
3
9
2
3
18
17
7
18
18
23
5
18
13
20
2
12
6
4
18
15
15
1
16
21
23
9
18
15
3
21
5
15
19
19
1
20
11
10
6
6
6
19
1
5
3
19
6
6
5
21
3
3
10
3
19
22
2
4
20
9
8
1
2
14
14
14